Solving original (integer) problem with strategy gdp.binary_multiplication...
--- Job model.gms Start 02/19/26 00:26:19 52.2.0 d8e408be LEX-LEG x86 64bit/Linux
--- Applying:
    /package/gams/52.2/gmsprmun.txt
--- GAMS Parameters defined
    Input /local/scratch/a/sgusev/repos/k_means/data/gams_gurobi_gdp.binary_multiplication/no_mode/2026-02-19_00-26-18/original/model.gms
    Output /local/scratch/a/sgusev/repos/k_means/data/gams_gurobi_gdp.binary_multiplication/no_mode/2026-02-19_00-26-18/original/output.lst
    ScrDir /local/scratch/a/sgusev/repos/k_means/data/gams_gurobi_gdp.binary_multiplication/no_mode/2026-02-19_00-26-18/original/225a/
    SysDir /package/gams/52.2/
    CurDir /local/scratch/a/sgusev/repos/k_means/data/gams_gurobi_gdp.binary_multiplication/no_mode/2026-02-19_00-26-18/original/
    LogOption 3
    AppendLog 1
Licensee: David Bernal / SECQUOIA Research Group         G251008+0003Ac-GEN
          Purdue University, Davidson School of Chemical EngineeringDCE4838
          225a/gamslice.dat
          5a82958a-fbca-4a23
          node:66820903 mem:995 cores:48 ipport:54511 v:2                  
          Evaluation license: Not for commercial or production use
          The time-limited license stops working on : Jun 30, 2027
System information: 48 physical cores and 995 Gb physical memory detected
GAMS 52.2.0   Copyright (C) 1987-2025 GAMS Development. All rights reserved
--- Starting compilation
--- model.gms(223) 2 Mb
--- $echo File /local/scratch/a/sgusev/repos/k_means/data/gams_gurobi_gdp.binary_multiplication/no_mode/2026-02-19_00-26-18/original/gurobi.opt
--- model.gms(396) 2 Mb
--- Starting execution: elapsed 0:00:00.005
--- model.gms(232) 3 Mb
--- Generating MINLP model GAMS_MODEL
--- model.gms(236) 5 Mb
---   47 rows  60 columns  280 non-zeroes
---   759 nl-code  231 nl-non-zeroes
---   33 discrete-columns
--- Range statistics (absolute non-zero finite values)
--- RHS       [min, max] : [ 1.000E+00, 1.000E+00] - Zero values observed as well
--- Bound     [min, max] : [ 1.000E+00, 1.100E+02] - Zero values observed as well
--- Matrix    [min, max] : [ 1.000E+00, 3.271E+00] - Zero values observed as well
--- model.gms(236) 3 Mb
--- Executing GUROBI (Solvelink=5): elapsed 0:00:00.008
Reading parameter(s) from "/local/scratch/a/sgusev/repos/k_means/data/gams_gurobi_gdp.binary_multiplication/no_mode/2026-02-19_00-26-18/original/gurobi.opt"
>>  NonConvex 2
>>  Threads 1
>>  MIPGap 1e-06
>>  MIPGapAbs 1e-10
>>  FeasibilityTol 1e-06
>>  OptimalityTol 1e-06
>>  IntFeasTol 1e-05
Finished reading from "/local/scratch/a/sgusev/repos/k_means/data/gams_gurobi_gdp.binary_multiplication/no_mode/2026-02-19_00-26-18/original/gurobi.opt"

... GRB_LICENSE_FILE = /local/scratch/a/sgusev/gurobi.lic

    Gurobi           52.2.0 d8e408be Dec 8, 2025           LEG x86 64bit/Linux    

... GAMS/Gurobi Link license.
... GMO Q Extraction (ThreePass): 0.00s

    Gurobi Optimizer version 13.0.0 build v13.0.0rc1 (linux64 - "Oracle Linux Server 9.7")
    
    CPU model: AMD EPYC 7643 48-Core Processor, instruction set [SSE2|AVX|AVX2]
    Thread count: 48 physical cores, 96 logical processors, using up to 1 threads
    
    Non-default parameters:
    TimeLimit  300
    MIPGap  1e-06
    LogToConsole  0
    NonConvex  2
    Threads  1
    
    Optimize a model with 46 rows, 92 columns and 70 nonzeros (Min)
    Model fingerprint: 0xf8f10525
    Model has 11 linear objective coefficients
    Model has 33 general nonlinear constraints (198 nonlinear terms)
    Variable types: 59 continuous, 33 integer (0 binary)
    Coefficient statistics:
      Matrix range     [1e+00, 1e+00]
      Objective range  [1e+00, 1e+00]
      Bounds range     [1e+00, 1e+02]
      RHS range        [1e+00, 1e+00]
      NLCon coe range  [5e-02, 1e+00]
    Presolve model has 33 nlconstr
    Added 363 variables to disaggregate expressions
    Presolve removed 33 rows and 0 columns
    Presolve time: 0.00s
    Presolved: 838 rows, 489 columns, 1918 nonzeros
    Presolved model has 165 bilinear constraint(s)
    
    Solving non-convex MIQCP to global optimality
    
    Variable types: 456 continuous, 33 integer (33 binary)
    Found heuristic solution: objective 18.1476812
    
    Root relaxation: objective 0.000000e+00, 45 iterations, 0.00 seconds (0.00 work units)
    
        Nodes    |    Current Node    |     Objective Bounds      |     Work
     Expl Unexpl |  Obj  Depth IntInf | Incumbent    BestBd   Gap | It/Node Time
    
         0     0    0.00000    0  162   18.14768    0.00000   100%     -    0s
         0     0    0.00000    0  187   18.14768    0.00000   100%     -    0s
         0     0    0.00000    0  187   18.14768    0.00000   100%     -    0s
         0     0    0.00000    0  179   18.14768    0.00000   100%     -    0s
         0     0    0.00000    0  161   18.14768    0.00000   100%     -    0s
         0     0    0.00000    0  180   18.14768    0.00000   100%     -    0s
         0     0    0.00000    0  186   18.14768    0.00000   100%     -    0s
         0     0    0.00000    0  186   18.14768    0.00000   100%     -    0s
         0     0    0.00000    0  185   18.14768    0.00000   100%     -    0s
    H    0     0                      17.1384387    0.00000   100%     -    0s
    H    0     0                      17.1288864    0.00000   100%     -    0s
    H    0     0                      16.3796898    0.00000   100%     -    0s
    H    0     0                      15.6659053    0.00000   100%     -    0s
         0     2    0.00000    0  183   15.66591    0.00000   100%     -    0s
    H    5     5                      14.5378027    0.00000   100%  17.0    0s
    H    6     6                      14.5378027    0.00000   100%  23.2    0s
    H    7     7                      13.4485272    0.00000   100%  20.9    0s
    H    8     8                      13.1368073    0.00000   100%  20.1    0s
    H   11    11                      12.8035354    0.00000   100%  18.5    0s
    H   12    12                      12.1978095    0.00000   100%  18.7    0s
    H   12    12                      12.0839560    0.00000   100%  18.7    0s
    H   12    12                      12.0760778    0.00000   100%  18.7    0s
    H   14    14                      11.9814222    0.00000   100%  19.3    0s
    H   15    15                      11.5392341    0.00000   100%  18.5    0s
    H   15    15                      11.5312105    0.00000   100%  18.5    0s
    H   17    17                      11.5007988    0.00000   100%  19.4    0s
    H   17    17                      11.4992517    0.00000   100%  19.4    0s
    H   17    17                      11.4991859    0.00000   100%  19.4    0s
    H   29    29                      10.9248570    0.00000   100%  14.1    0s
    H   30    30                      10.9248570    0.00000   100%  13.7    0s
    H   82    80                      10.9248570    0.00000   100%   8.6    0s
    H  275   212                      10.9248570    0.00000   100%  15.3    0s
    H  295   229                      10.5415544    0.00000   100%  15.4    0s
    H  300   232                      10.5415544    0.00000   100%  15.3    0s
    *  556   474             152      10.5415425    0.00000   100%  11.2    0s
    H  595   468                      10.4252063    0.00000   100%  17.9    1s
    H  596   446                      10.4251218    0.00000   100%  17.9    1s
    H  596   424                      10.4251126    0.00000   100%  17.9    1s
    H  599   405                      10.0977637    0.00000   100%  18.1    1s
    H  599   385                      10.0925912    0.00000   100%  18.1    1s
    H  599   366                      10.0882064    0.00000   100%  18.1    1s
    H  599   348                      10.0864264    0.00000   100%  18.1    1s
    H  599   331                      10.0858466    0.00000   100%  18.1    1s
    H  599   315                      10.0855752    0.00000   100%  18.1    1s
    H  599   299                      10.0855696    0.00000   100%  18.1    1s
    H  608   291                       9.8182542    0.00000   100%  18.2    1s
    H  608   277                       9.7865687    0.00000   100%  18.2    1s
    H  608   264                       9.7821948    0.00000   100%  18.2    1s
    H  608   251                       9.7771020    0.00000   100%  18.2    1s
    H  608   239                       9.7769319    0.00000   100%  18.2    1s
    H  608   228                       9.7761293    0.00000   100%  18.2    1s
    H  612   220                       9.7736182    0.00000   100%  18.3    1s
    H  612   210                       9.7735138    0.00000   100%  18.3    1s
    H  638   209                       9.7713234    0.00000   100%  18.3    1s
    H  681   223                       9.7238732    0.00000   100%  19.0    1s
    H  685   216                       9.7238731    0.00000   100%  19.0    1s
    H  688   210                       9.7032346    0.00000   100%  18.9    1s
    H  868   238                       9.7005538    0.00000   100%  21.2    1s
    H  868   230                       9.6995009    0.00000   100%  21.2    1s
    H  868   223                       9.6993814    0.00000   100%  21.2    1s
    H  915   240                       9.6993629    0.00000   100%  21.3    2s
    H 1393   495                       9.6421535    0.00000   100%  21.9    2s
    H 1393   495                       9.6185398    0.00000   100%  21.9    2s
    H 1393   495                       9.6181512    0.00000   100%  21.9    2s
    H 1441   467                       9.1951067    0.00000   100%  21.9    2s
    H 1453   473                       9.1951067    0.00000   100%  21.8    2s
      4048  1197     cutoff   26         9.19511    2.59773  71.7%  23.6    5s
      9442  1785     cutoff   28         9.19511    4.87842  46.9%  24.5   10s
     14610  1711    8.94667   26  165    9.19511    6.24459  32.1%  24.3   15s
     19807  1293    9.19076   93  120    9.19511    7.91104  14.0%  23.1   20s
     25870  3199    9.04258   50  120    9.19511    8.43385  8.28%  19.8   25s
     32449  5025    9.13138   48   88    9.19511    8.56767  6.82%  17.5   30s
     39097  6985    8.97371   46  108    9.19511    8.63773  6.06%  15.8   35s
     45491  8721    9.15032   55  121    9.19511    8.68750  5.52%  14.5   40s
    *48996 10244             177       9.1950886    8.70799  5.30%  13.9   42s
     51750 10884    8.95498   52  109    9.19509    8.72704  5.09%  13.6   45s
     58364 12564    9.18407   70   99    9.19509    8.76572  4.67%  12.9   50s
     65108 14308    9.19362   83  121    9.19509    8.79988  4.30%  12.2   55s
     71819 16217    9.19042   58   99    9.19509    8.82445  4.03%  11.8   60s
     78293 18110    9.18976   60   99    9.19509    8.84202  3.84%  11.4   65s
     84344 20065    8.98288   54  120    9.19509    8.85525  3.70%  11.2   70s
     91326 22061    9.08188   57  110    9.19509    8.86976  3.54%  10.8   75s
     97956 24001 infeasible   54         9.19509    8.87996  3.43%  10.5   80s
     104905 26214    9.19133  105  110    9.19509    8.89071  3.31%  10.2   85s
     111889 28266    9.06704   51  109    9.19509    8.89987  3.21%   9.9   90s
     118632 29983    9.11203   67  110    9.19509    8.90872  3.11%   9.7   95s
     125625 31906    9.16591   56  109    9.19509    8.91640  3.03%   9.5  100s
     132416 33563    9.14636   56   98    9.19509    8.92302  2.96%   9.3  105s
     139410 35313     cutoff   65         9.19509    8.93085  2.87%   9.1  110s
     146447 37076    9.13571   73  110    9.19509    8.93665  2.81%   9.0  115s
     153200 38531     cutoff   61         9.19509    8.94274  2.74%   8.8  120s
     160221 40238     cutoff   56         9.19509    8.94843  2.68%   8.7  125s
     167044 41995    9.15510   66  109    9.19509    8.95322  2.63%   8.5  130s
     174114 43879    9.18347   87  143    9.19509    8.95809  2.58%   8.4  135s
     181219 45628    9.11696   58  120    9.19509    8.96310  2.52%   8.3  140s
     188084 47429    9.12789   57  120    9.19509    8.96761  2.47%   8.2  145s
     195181 49034    9.07398   53   99    9.19509    8.97196  2.43%   8.1  150s
     201452 50449     cutoff   49         9.19509    8.97597  2.38%   8.0  155s
     207874 52233    9.14654   71  109    9.19509    8.97918  2.35%   8.0  160s
     214281 54162    9.16240   61  109    9.19509    8.98203  2.32%   7.9  165s
     220450 55681    9.16732   69   88    9.19509    8.98506  2.28%   7.9  170s
     226815 57326    9.13234   56  132    9.19509    8.98760  2.26%   7.8  175s
     233636 58927    9.18928   75   99    9.19509    8.99078  2.22%   7.8  180s
     240673 60396    9.09208   62  109    9.19509    8.99420  2.18%   7.7  185s
     247482 62059    9.16013   65  110    9.19509    8.99703  2.15%   7.6  190s
     254232 63821     cutoff   63         9.19509    8.99948  2.13%   7.6  195s
     261314 65641    9.11329   68  121    9.19509    9.00194  2.10%   7.5  200s
     268107 67348    9.15766   75   88    9.19509    9.00458  2.07%   7.4  205s
     275155 69098    9.18737   70  132    9.19509    9.00716  2.04%   7.4  210s
     282216 70927    9.07833   58  109    9.19509    9.00948  2.02%   7.3  215s
     288987 72710    9.16757   70   99    9.19509    9.01153  2.00%   7.3  220s
     296047 74570     cutoff   69         9.19509    9.01334  1.98%   7.2  225s
     303158 76563    9.11525   66  121    9.19509    9.01534  1.95%   7.2  230s
     309918 78275     cutoff   78         9.19509    9.01744  1.93%   7.1  235s
     316973 79998     cutoff   47         9.19509    9.01932  1.91%   7.1  240s
     324055 81872    9.14902   61  120    9.19509    9.02113  1.89%   7.0  245s
     330779 83452    9.16339   77  121    9.19509    9.02291  1.87%   7.0  250s
     337786 85201     cutoff   60         9.19509    9.02473  1.85%   6.9  255s
     344546 86957     cutoff   58         9.19509    9.02655  1.83%   6.9  260s
     351606 88765     cutoff   68         9.19509    9.02831  1.81%   6.8  265s
     358538 90841    9.15567   75  121    9.19509    9.02991  1.80%   6.8  270s
     365284 92671    9.18444   81  131    9.19509    9.03119  1.78%   6.8  275s
     372301 94440    9.12802   60   98    9.19509    9.03262  1.77%   6.7  280s
     379393 96222    9.08591   57   98    9.19509    9.03411  1.75%   6.7  285s
     386090 98021     cutoff   72         9.19509    9.03559  1.73%   6.6  290s
     393150 99765     cutoff   62         9.19509    9.03697  1.72%   6.6  295s
    
    Cutting planes:
      Gomory: 4
      MIR: 8
      Flow cover: 29
      RLT: 7
    
    Explored 400133 nodes (2630428 simplex iterations) in 300.00 seconds (200.57 work units)
    Thread count was 1 (of 96 available processors)
    
    Solution count 10: 9.19509 9.19511 9.61815 ... 9.70323
    
    Time limit reached
    Warning: max constraint violation (2.9893e-06) exceeds tolerance
    Warning: max general constraint violation (2.9893e-06) exceeds tolerance
    Best objective 9.195088591048e+00, best bound 9.038457928531e+00, gap 1.7034%
    
    User-callback calls 400195, time in user-callback 0.02 sec

--- Reading solution for model GAMS_MODEL
***
*** Solver did not provide marginals for model GAMS_MODEL
***
--- Executing after solve: elapsed 0:05:00.112
--- model.gms(239) 3 Mb
--- model.gms(396) 5 Mb
--- Putfile results /local/scratch/a/sgusev/repos/k_means/data/gams_gurobi_gdp.binary_multiplication/no_mode/2026-02-19_00-26-18/original/results.dat
--- Putfile statresults /local/scratch/a/sgusev/repos/k_means/data/gams_gurobi_gdp.binary_multiplication/no_mode/2026-02-19_00-26-18/original/resultsstat.dat
*** Status: Normal completion
--- Job model.gms Stop 02/19/26 00:31:19 elapsed 0:05:00.112
Original problem solved. Time taken: 300.60953164100647 seconds
Original objective value: 9.19508859104778
